knapPI_9_1000_1000_436
n 1000
c 750808
z 457245
time 0.3
1,279,1001,1
2,592,1001,1
3,732,1000,1
4,388,1001,1
5,882,1001,1
6,689,1001,1
7,701,1000,1
8,754,1001,1
9,619,1001,1
10,748,1001,1
11,697,1000,1
12,61,1000,1
13,952,1000,1
14,532,1001,1
15,715,1001,1
16,529,1000,1
17,941,1000,1
18,568,1000,1
19,911,1000,1
20,484,1000,1
21,47,1001,1
22,122,1001,1
23,320,1000,1
24,696,1001,1
25,593,1001,1
26,755,1001,1
27,722,1001,1
28,730,1001,1
29,12,1000,1
30,950,1001,1
31,282,1001,1
32,493,1001,1
33,488,1000,1
34,84,1001,1
35,266,1001,1
36,396,1000,1
37,368,1000,1
38,199,1001,1
39,747,1000,1
40,824,1001,1
41,50,1001,1
42,112,1001,1
43,691,1000,1
44,93,1001,1
45,756,1001,1
46,495,1001,1
47,663,1000,1
48,762,1000,1
49,911,1000,1
50,515,1001,1
51,63,1000,1
52,647,1000,1
53,138,1000,1
54,906,1000,1
55,63,1001,1
56,46,1001,1
57,351,1001,1
58,805,1000,1
59,647,1001,1
60,753,1000,1
61,420,1000,1
62,92,1001,1
63,634,1001,1
64,797,1001,1
65,453,1001,1
66,996,1001,1
67,272,1000,1
68,850,1000,1
69,905,1001,1
70,861,1000,1
71,283,1000,1
72,532,1000,1
73,623,1001,1
74,551,1001,1
75,92,1000,1
76,462,1001,1
77,726,1001,1
78,940,1001,1
79,345,1001,1
80,39,1000,1
81,934,1001,1
82,392,1001,1
83,255,1000,1
84,54,1000,1
85,48,1000,1
86,172,1001,1
87,329,1001,1
88,880,1001,1
89,657,1000,1
90,513,1001,1
91,529,1000,1
92,269,1001,1
93,169,1001,1
94,42,1000,1
95,954,1000,1
96,110,1001,1
97,569,1000,1
98,151,1000,1
99,103,1000,1
100,690,1001,1
101,30,1001,1
102,620,1000,1
103,747,1001,1
104,135,1000,1
105,110,1001,1
106,68,1001,1
107,653,1001,1
108,409,1001,1
109,224,1000,1
110,152,1001,1
111,790,1001,1
112,470,1001,1
113,869,1000,1
114,807,1000,1
115,867,1001,1
116,517,1001,1
117,463,1001,1
118,968,1000,1
119,299,1001,1
120,129,1001,1
121,448,1000,1
122,833,1001,1
123,1,1001,1
124,760,1001,1
125,306,1001,1
126,799,1001,1
127,972,1000,1
128,100,1000,1
129,329,1000,1
130,338,1000,1
131,160,1000,1
132,368,1000,1
133,53,1000,1
134,865,1001,1
135,982,1001,1
136,939,1001,1
137,271,1000,1
138,950,1000,1
139,416,1000,1
140,912,1000,1
141,774,1001,1
142,427,1000,1
143,404,1000,1
144,497,1000,1
145,330,1000,1
146,967,1000,1
147,482,1000,1
148,290,1000,1
149,777,1000,1
150,879,1001,1
151,309,1000,1
152,164,1001,1
153,747,1001,1
154,8,1000,1
155,812,1001,1
156,634,1001,1
157,37,1000,1
158,185,1000,1
159,854,1000,1
160,19,1000,1
161,205,1001,1
162,935,1001,1
163,925,1000,1
164,625,1001,1
165,843,1000,1
166,750,1001,1
167,253,1000,1
168,648,1000,1
169,434,1000,1
170,562,1000,1
171,914,1000,1
172,929,1000,1
173,485,1000,1
174,708,1001,1
175,238,1000,1
176,879,1000,1
177,906,1001,1
178,716,1001,1
179,79,1000,1
180,530,1001,1
181,792,1000,1
182,701,1001,1
183,686,1001,1
184,385,1000,1
185,994,1001,1
186,425,1000,1
187,324,1001,1
188,475,1000,1
189,344,1001,1
190,358,1001,1
191,613,1001,1
192,327,1000,1
193,54,1000,1
194,964,1001,1
195,398,1001,1
196,954,1000,1
197,37,1001,1
198,881,1001,1
199,558,1000,1
200,285,1000,1
201,385,1000,1
202,172,1000,1
203,213,1001,1
204,678,1001,1
205,358,1001,1
206,857,1001,1
207,461,1000,1
208,25,1001,1
209,770,1001,1
210,960,1000,1
211,263,1000,1
212,714,1001,1
213,791,1000,1
214,646,1001,1
215,60,1000,1
216,82,1000,1
217,873,1000,1
218,786,1001,1
219,216,1001,1
220,522,1001,1
221,641,1000,1
222,974,1000,1
223,169,1001,1
224,306,1001,1
225,168,1001,1
226,5,1001,1
227,136,1000,1
228,73,1000,1
229,554,1001,1
230,790,1000,1
231,768,1000,1
232,692,1000,1
233,605,1000,1
234,988,1000,1
235,87,1000,1
236,124,1000,1
237,993,1000,1
238,352,1000,1
239,547,1001,1
240,784,1000,1
241,212,1000,1
242,762,1000,1
243,992,1001,1
244,550,1000,1
245,171,1000,1
246,541,1001,1
247,261,1000,1
248,958,1001,1
249,922,1001,1
250,201,1000,1
251,991,1000,1
252,301,1000,1
253,615,1000,1
254,37,1000,1
255,918,1001,1
256,52,1000,1
257,551,1001,1
258,525,1001,1
259,27,1001,1
260,616,1001,1
261,611,1000,1
262,904,1001,1
263,310,1000,1
264,136,1001,1
265,529,1001,1
266,938,1001,1
267,435,1001,1
268,988,1000,1
269,671,1000,1
270,159,1001,1
271,468,1000,1
272,446,1000,1
273,941,1000,1
274,362,1001,1
275,783,1000,1
276,401,1000,1
277,418,1001,1
278,44,1001,1
279,762,1001,1
280,326,1001,1
281,409,1000,1
282,619,1000,1
283,678,1000,1
284,555,1001,1
285,687,1000,1
286,585,1000,1
287,721,1000,1
288,923,1001,1
289,966,1000,1
290,536,1000,1
291,310,1001,1
292,729,1001,1
293,246,1001,1
294,388,1001,1
295,375,1001,1
296,140,1001,1
297,400,1001,1
298,828,1001,1
299,392,1000,1
300,695,1001,1
301,688,1001,1
302,645,1001,1
303,70,1000,1
304,221,1000,1
305,637,1000,1
306,189,1000,1
307,844,1001,1
308,905,1001,1
309,373,1001,1
310,873,1000,1
311,623,1000,1
312,449,1001,1
313,446,1000,1
314,88,1001,1
315,315,1000,1
316,160,1000,1
317,89,1001,1
318,357,1000,1
319,269,1001,1
320,588,1000,1
321,480,1000,1
322,160,1001,1
323,129,1001,1
324,661,1000,1
325,29,1001,1
326,375,1000,1
327,916,1001,1
328,218,1000,1
329,237,1000,1
330,807,1000,1
331,939,1001,1
332,219,1000,1
333,966,1000,1
334,488,1001,1
335,889,1001,1
336,377,1001,1
337,301,1001,1
338,130,1001,1
339,978,1001,1
340,991,1001,1
341,689,1000,1
342,307,1000,1
343,94,1001,1
344,22,1001,1
345,364,1001,1
346,147,1001,1
347,723,1001,1
348,230,1000,1
349,370,1000,1
350,917,1000,1
351,865,1001,1
352,395,1000,1
353,81,1000,1
354,401,1001,1
355,561,1000,1
356,549,1000,1
357,418,1001,1
358,957,1000,1
359,141,1000,1
360,725,1000,1
361,308,1001,1
362,210,1001,1
363,60,1000,1
364,767,1000,1
365,185,1000,1
366,329,1000,1
367,780,1001,1
368,331,1000,1
369,525,1001,1
370,808,1000,1
371,900,1001,1
372,431,1000,1
373,505,1000,1
374,10,1001,1
375,499,1001,1
376,587,1000,1
377,451,1000,1
378,128,1001,1
379,10,1001,1
380,276,1001,1
381,336,1000,1
382,620,1000,1
383,618,1000,1
384,129,1001,1
385,687,1001,1
386,448,1000,1
387,520,1001,1
388,19,1001,1
389,534,1000,1
390,153,1000,1
391,47,1000,1
392,670,1000,1
393,386,1001,1
394,451,1001,1
395,341,1000,1
396,375,1001,1
397,795,1001,1
398,913,1000,1
399,197,1001,1
400,700,1000,1
401,899,1001,1
402,275,1001,1
403,331,1001,1
404,359,1001,1
405,564,1001,1
406,264,1001,1
407,243,1001,1
408,301,1001,1
409,531,1000,1
410,429,1000,1
411,930,1001,1
412,474,1001,1
413,343,1000,1
414,779,1000,1
415,600,1001,1
416,234,1000,1
417,682,1001,1
418,146,1000,1
419,5,1001,1
420,661,1000,1
421,266,1001,1
422,279,1001,1
423,834,1000,1
424,715,1000,1
425,153,1001,1
426,370,1000,1
427,611,1000,1
428,223,1000,1
429,729,1001,1
430,570,1001,1
431,494,1001,1
432,388,1000,1
433,677,1001,1
434,147,1000,1
435,136,1000,1
436,513,1001,1
437,269,1001,1
438,503,1000,1
439,282,1001,1
440,856,1000,1
441,448,1000,1
442,259,1000,1
443,76,1000,1
444,320,1000,1
445,899,1001,1
446,418,1001,1
447,367,1000,1
448,666,1001,1
449,36,1000,1
450,422,1000,1
451,525,1000,1
452,188,1000,1
453,374,1000,1
454,575,1001,1
455,91,1000,1
456,528,1001,1
457,547,1001,1
458,697,1000,1
459,983,1001,1
460,675,1000,1
461,313,1001,1
462,331,1000,1
463,130,1000,1
464,227,1000,1
465,322,1001,1
466,164,1001,1
467,962,1000,1
468,955,1000,1
469,604,1001,1
470,463,1000,1
471,243,1001,1
472,722,1001,1
473,714,1001,1
474,559,1001,1
475,732,1001,1
476,202,1001,1
477,478,1001,1
478,668,1001,1
479,649,1000,1
480,761,1000,1
481,940,1001,1
482,863,1001,1
483,990,1000,1
484,754,1001,1
485,969,1000,1
486,72,1000,1
487,862,1001,1
488,332,1001,1
489,558,1000,1
490,307,1000,1
491,516,1001,1
492,75,1001,1
493,984,1000,1
494,226,1000,1
495,81,1001,1
496,232,1001,1
497,472,1001,1
498,875,1000,1
499,268,1001,1
500,901,1001,1
501,213,1001,1
502,297,1001,1
503,971,1001,1
504,163,1000,1
505,811,1000,1
506,769,1000,1
507,445,1001,1
508,328,1000,1
509,906,1001,1
510,978,1001,1
511,382,1001,1
512,314,1000,1
513,170,1000,1
514,729,1001,1
515,169,1000,1
516,273,1000,1
517,380,1001,1
518,944,1000,1
519,958,1001,1
520,925,1000,1
521,319,1000,1
522,792,1000,1
523,3,1001,1
524,705,1000,1
525,91,1000,1
526,509,1000,1
527,528,1000,1
528,989,1001,1
529,583,1000,1
530,11,1000,1
531,426,1001,1
532,231,1000,1
533,235,1001,1
534,344,1000,1
535,424,1001,1
536,902,1001,1
537,792,1001,1
538,649,1001,1
539,32,1001,1
540,388,1000,1
541,290,1000,1
542,116,1001,1
543,871,1001,1
544,688,1000,1
545,401,1000,1
546,498,1000,1
547,662,1001,1
548,429,1000,1
549,446,1001,1
550,482,1000,1
551,462,1000,1
552,19,1000,1
553,579,1001,1
554,231,1001,1
555,296,1000,1
556,430,1001,1
557,184,1001,1
558,936,1000,1
559,615,1000,1
560,224,1000,1
561,777,1000,1
562,29,1000,1
563,729,1001,1
564,579,1000,1
565,908,1000,1
566,449,1000,1
567,43,1000,1
568,476,1001,1
569,499,1000,1
570,987,1000,1
571,660,1001,1
572,262,1000,1
573,167,1001,1
574,573,1000,1
575,171,1000,1
576,366,1001,1
577,879,1000,1
578,71,1000,1
579,953,1001,1
580,257,1000,1
581,153,1000,1
582,223,1001,1
583,840,1001,1
584,161,1000,1
585,591,1000,1
586,531,1000,1
587,949,1001,1
588,978,1001,1
589,954,1000,1
590,241,1000,1
591,662,1001,1
592,761,1000,1
593,455,1000,1
594,228,1001,1
595,220,1000,1
596,537,1001,1
597,254,1001,1
598,507,1001,1
599,834,1000,1
600,860,1000,1
601,145,1000,1
602,406,1001,1
603,433,1000,1
604,471,1001,1
605,516,1000,1
606,168,1000,1
607,779,1001,1
608,896,1001,1
609,617,1001,1
610,25,1001,1
611,867,1001,1
612,274,1001,1
613,480,1000,1
614,161,1000,1
615,202,1000,1
616,918,1001,1
617,417,1001,1
618,332,1000,1
619,305,1000,1
620,605,1001,1
621,211,1000,1
622,762,1001,1
623,188,1001,1
624,982,1000,1
625,837,1000,1
626,65,1000,1
627,877,1000,1
628,92,1001,1
629,646,1001,1
630,883,1001,1
631,308,1001,1
632,838,1000,1
633,569,1000,1
634,382,1001,1
635,68,1001,1
636,831,1001,1
637,797,1001,1
638,606,1000,1
639,134,1000,1
640,713,1000,1
641,852,1001,1
642,405,1000,1
643,505,1001,1
644,365,1000,1
645,509,1000,1
646,49,1001,1
647,357,1001,1
648,421,1001,1
649,323,1001,1
650,929,1000,1
651,256,1000,1
652,509,1000,1
653,185,1000,1
654,655,1001,1
655,134,1001,1
656,153,1001,1
657,556,1000,1
658,265,1001,1
659,15,1001,1
660,734,1000,1
661,121,1000,1
662,136,1001,1
663,176,1001,1
664,340,1001,1
665,187,1001,1
666,276,1000,1
667,537,1000,1
668,229,1000,1
669,332,1000,1
670,724,1001,1
671,992,1000,1
672,728,1000,1
673,738,1001,1
674,180,1000,1
675,891,1001,1
676,435,1000,1
677,973,1000,1
678,480,1001,1
679,739,1000,1
680,374,1001,1
681,875,1001,1
682,746,1001,1
683,729,1001,1
684,194,1000,1
685,539,1001,1
686,708,1000,1
687,182,1000,1
688,180,1001,1
689,549,1000,1
690,155,1001,1
691,958,1001,1
692,296,1001,1
693,943,1001,1
694,307,1000,1
695,294,1000,1
696,198,1000,1
697,478,1001,1
698,813,1001,1
699,418,1000,1
700,76,1000,1
701,41,1001,1
702,129,1000,1
703,360,1000,1
704,914,1000,1
705,595,1001,1
706,655,1000,1
707,183,1001,1
708,412,1001,1
709,608,1000,1
710,702,1001,1
711,168,1000,1
712,593,1000,1
713,782,1001,1
714,393,1000,1
715,731,1000,1
716,364,1001,1
717,98,1000,1
718,351,1001,1
719,448,1001,1
720,122,1001,1
721,62,1000,1
722,637,1000,1
723,831,1000,1
724,81,1000,1
725,971,1000,1
726,522,1000,1
727,579,1001,1
728,151,1001,1
729,900,1000,1
730,280,1001,1
731,966,1000,1
732,708,1000,1
733,112,1000,1
734,348,1001,1
735,586,1001,1
736,90,1001,1
737,951,1000,1
738,34,1001,1
739,213,1001,1
740,81,1000,1
741,755,1001,1
742,98,1000,1
743,798,1001,1
744,822,1000,1
745,496,1000,1
746,925,1001,1
747,571,1000,1
748,125,1001,1
749,124,1000,1
750,676,1001,1
751,515,1000,1
752,706,1001,1
753,227,1000,1
754,974,1001,1
755,470,1000,1
756,359,1001,1
757,167,1001,1
758,450,1000,1
759,348,1001,1
760,423,1000,1
761,673,1000,1
762,604,1000,1
763,581,1001,1
764,435,1000,1
765,374,1000,1
766,972,1000,1
767,90,1001,1
768,527,1000,1
769,74,1000,1
770,21,1000,1
771,712,1000,1
772,209,1001,1
773,699,1000,1
774,239,1001,1
775,506,1000,1
776,837,1001,1
777,463,1000,1
778,543,1001,1
779,154,1001,1
780,734,1001,1
781,55,1000,1
782,865,1000,1
783,986,1000,1
784,494,1000,1
785,416,1001,1
786,401,1001,1
787,609,1000,1
788,133,1001,1
789,591,1001,1
790,3,1001,1
791,381,1000,1
792,768,1000,1
793,309,1001,1
794,377,1001,1
795,609,1000,1
796,471,1000,1
797,798,1001,1
798,641,1000,1
799,704,1000,1
800,480,1001,1
801,379,1001,1
802,93,1001,1
803,106,1001,1
804,1,1000,1
805,78,1000,1
806,670,1000,1
807,946,1000,1
808,772,1001,1
809,216,1000,1
810,864,1001,1
811,914,1001,1
812,870,1000,1
813,330,1001,1
814,478,1001,1
815,897,1000,1
816,811,1001,1
817,183,1000,1
818,239,1000,1
819,30,1001,1
820,728,1001,1
821,255,1000,1
822,943,1000,1
823,80,1000,1
824,412,1001,1
825,971,1000,1
826,563,1000,1
827,178,1001,1
828,779,1001,1
829,286,1001,1
830,133,1001,1
831,25,1001,1
832,756,1000,1
833,880,1000,1
834,292,1000,1
835,767,1001,1
836,621,1001,1
837,399,1000,1
838,681,1001,1
839,729,1001,1
840,255,1001,1
841,682,1000,1
842,927,1000,1
843,618,1001,1
844,514,1000,1
845,954,1000,1
846,334,1001,1
847,357,1000,1
848,251,1001,1
849,473,1000,1
850,829,1000,1
851,820,1001,1
852,607,1001,1
853,174,1000,1
854,506,1000,1
855,458,1001,1
856,606,1001,1
857,352,1001,1
858,337,1001,1
859,780,1001,1
860,683,1000,1
861,399,1000,1
862,786,1000,1
863,207,1001,1
864,678,1000,1
865,946,1001,1
866,497,1001,1
867,927,1000,1
868,348,1001,1
869,422,1001,1
870,199,1001,1
871,852,1000,1
872,382,1001,1
873,96,1001,1
874,856,1000,1
875,594,1000,1
876,450,1001,1
877,562,1000,1
878,660,1000,1
879,12,1000,1
880,377,1000,1
881,664,1001,1
882,837,1000,1
883,100,1001,1
884,517,1000,1
885,963,1001,1
886,447,1001,1
887,713,1001,1
888,354,1000,1
889,271,1000,1
890,195,1001,1
891,341,1000,1
892,544,1001,1
893,46,1001,1
894,105,1001,1
895,447,1001,1
896,63,1001,1
897,87,1001,1
898,635,1001,1
899,202,1000,1
900,465,1001,1
901,278,1000,1
902,786,1001,1
903,280,1000,1
904,873,1000,1
905,39,1001,1
906,297,1001,1
907,152,1001,1
908,193,1001,1
909,724,1000,1
910,304,1001,1
911,33,1000,1
912,258,1001,1
913,116,1001,1
914,648,1000,1
915,639,1000,1
916,118,1001,1
917,767,1001,1
918,486,1000,1
919,574,1001,1
920,366,1000,1
921,560,1000,1
922,299,1000,1
923,378,1001,1
924,191,1000,1
925,335,1000,1
926,796,1001,1
927,790,1000,1
928,620,1000,1
929,112,1000,1
930,891,1001,1
931,54,1001,1
932,324,1001,1
933,519,1001,1
934,533,1001,1
935,680,1001,1
936,202,1001,1
937,874,1000,1
938,774,1001,1
939,797,1001,1
940,309,1000,1
941,786,1000,1
942,491,1001,1
943,963,1001,1
944,567,1001,1
945,444,1000,1
946,256,1001,1
947,777,1001,1
948,374,1001,1
949,252,1001,1
950,114,1000,1
951,314,1001,1
952,48,1001,1
953,28,1000,1
954,481,1000,1
955,395,1001,1
956,988,1000,1
957,187,1001,1
958,764,1001,1
959,308,1000,1
960,688,1001,1
961,347,1001,1
962,824,1000,1
963,468,1000,1
964,470,1000,1
965,942,1001,1
966,18,1000,1
967,613,1000,1
968,679,1001,1
969,799,1000,1
970,247,1001,1
971,381,1000,1
972,358,1001,1
973,552,1000,1
974,477,1000,1
975,152,1000,1
976,229,1001,1
977,261,1000,1
978,623,1000,1
979,218,1000,1
980,830,1001,1
981,700,1001,1
982,632,1000,1
983,590,1000,1
984,736,1000,1
985,387,1001,1
986,305,1001,1
987,167,1001,1
988,21,1000,1
989,553,1001,1
990,100,1001,1
991,995,1001,1
992,928,1001,1
993,36,1001,1
994,742,1000,1
995,296,1001,1
996,659,1001,1
997,801,1001,1
998,94,1001,1
999,741,1000,1
1000,496,1001,1
